\ENCODING=ISO-8859-1
\Problem name: ilog.cplex

Minimize
 obj1: - x_0_1 - x_0_2 - x_0_3 - x_0_4 - x_0_5 - x_0_8 + x_0_10 + x_0_11
       + x_0_12 - x_0_14 + x_0_16 - x_0_17 + x_16_17 - x_16_18 - x_16_19
       + x_16_20 - x_16_21 + x_0_23 + x_16_23 + x_0_24 + x_0_27 - x_16_27
       + x_0_28 + x_0_30 + x_1_2 - x_1_3 - x_1_4 + x_1_5 - x_1_6 - x_1_7
       - x_1_9 - x_1_10 + x_1_11 - x_1_16 - x_17_18 - x_17_19 - x_17_20
       - x_17_21 - x_17_24 + x_17_25 + x_1_26 + x_17_30 + x_2_3 - x_2_4 - x_2_5
       - x_2_6 - x_2_7 - x_2_8 - x_2_9 - x_2_10 - x_2_11 + x_2_15 - x_18_19
       + x_2_20 + x_18_20 + x_2_21 + x_18_21 + x_2_22 + x_2_24 + x_18_26
       + x_2_27 + x_18_27 + x_2_28 + x_18_29 + x_2_30 + x_18_31 - x_3_4 - x_3_6
       - x_3_7 - x_3_8 - x_3_9 - x_3_10 + x_3_11 + x_3_12 + x_3_18 + x_3_19
       + x_19_20 + x_3_21 - x_19_21 + x_3_22 - x_3_24 + x_19_24 + x_3_26
       + x_19_30 + x_3_31 - x_4_5 - x_4_6 - x_4_7 + x_4_8 + x_4_9 - x_4_10
       + x_4_12 + x_4_14 + x_4_15 + x_4_16 + x_4_19 + x_4_20 + x_20_21
       + x_20_24 + x_4_26 - x_20_28 + x_20_29 + x_4_30 + x_20_30 + x_4_31
       + x_20_31 - x_5_6 + x_5_8 - x_5_10 + x_5_12 + x_5_15 + x_5_20 - x_5_22
       + x_5_24 - x_21_25 + x_21_27 + x_21_28 + x_21_29 + x_6_7 - x_6_8
       - x_6_10 + x_6_13 + x_6_15 + x_6_16 - x_6_19 - x_22_23 + x_6_25
       - x_22_25 + x_6_26 + x_22_26 + x_6_27 + x_22_27 - x_22_28 - x_22_30
       - x_7_8 + x_7_9 - x_7_10 + x_7_11 + x_7_19 - x_7_24 - x_23_24 - x_23_25
       - x_23_26 - x_23_27 - x_23_28 + x_7_29 - x_23_29 + x_23_30 + x_7_31
       - x_23_31 + x_8_9 - x_8_10 - x_8_14 - x_8_19 - x_8_21 - x_8_22 + x_8_24
       - x_24_25 + x_24_26 - x_8_27 + x_24_27 + x_8_28 - x_24_28 - x_24_29
       - x_24_31 - x_9_10 + x_9_14 + x_9_15 + x_9_16 + x_9_20 + x_9_22 + x_9_23
       + x_9_25 - x_9_26 - x_25_26 + x_9_27 + x_25_27 - x_9_28 + x_25_28
       - x_9_29 - x_25_29 + x_25_30 + x_10_11 + x_10_15 + x_10_19 + x_10_23
       + x_10_24 - x_26_27 + x_10_28 - x_26_28 - x_26_29 - x_26_30 - x_26_31
       - x_11_12 - x_11_13 - x_11_14 - x_11_15 + x_11_17 - x_11_18 - x_11_19
       - x_11_20 - x_11_21 + x_11_23 - x_11_25 + x_11_26 + x_27_28 + x_27_29
       + x_27_30 - x_11_31 + x_27_31 + x_12_13 - x_12_14 - x_12_17 - x_12_18
       + x_12_19 + x_12_20 - x_12_21 + x_12_22 + x_12_23 + x_12_28 - x_28_29
       - x_28_30 - x_13_14 - x_13_15 + x_13_16 - x_13_17 - x_13_18 + x_13_19
       - x_13_20 - x_13_21 + x_13_23 + x_13_24 + x_13_28 + x_13_29 - x_13_30
       - x_29_30 - x_29_31 - x_14_15 + x_14_16 - x_14_17 + x_14_18 - x_14_19
       + x_14_20 - x_14_21 + x_14_26 + x_14_31 - x_30_31 - x_15_16 - x_15_17
       - x_15_18 - x_15_19 - x_15_20 - x_15_21 + x_15_24 + x_15_25 + x_15_28
       + 124
Subject To
 c1:   x_2_8 + x_2_9 - x_8_9 <= 1
 c2:   x_0_1 - x_0_10 + x_1_10 <= 1
 c3:   x_0_1 - x_0_16 + x_1_16 <= 1
 c4:   - x_16_17 + x_15_16 + x_15_17 <= 1
 c5:   - x_16_23 + x_16_27 + x_23_27 <= 1
 c6:   x_23_24 + x_23_26 - x_24_26 <= 1
 c7:   x_0_8 - x_0_27 + x_8_27 <= 1
 c8:   x_23_24 + x_23_27 - x_24_27 <= 1
 c9:   x_22_28 + x_8_22 - x_8_28 <= 1
 c10:  x_0_1 + x_0_2 - x_1_2 <= 1
 c11:  x_0_1 + x_0_5 - x_1_5 <= 1
 c12:  x_1_9 + x_1_16 - x_9_16 <= 1
 c13:  x_23_25 + x_23_27 - x_25_27 <= 1
 c14:  x_24_25 + x_24_28 - x_25_28 <= 1
 c15:  x_22_25 + x_22_30 - x_25_30 <= 1
 c16:  x_0_2 + x_0_3 - x_2_3 <= 1
 c17:  x_2_10 + x_2_11 - x_10_11 <= 1
 c18:  x_2_11 - x_2_15 + x_11_15 <= 1
 c19:  x_8_10 + x_8_19 - x_10_19 <= 1
 c20:  x_17_18 + x_17_20 - x_18_20 <= 1
 c21:  x_2_8 - x_2_21 + x_8_21 <= 1
 c22:  x_2_5 - x_2_22 + x_5_22 <= 1
 c23:  x_2_7 - x_2_24 + x_7_24 <= 1
 c24:  x_3_10 + x_3_24 - x_10_24 <= 1
 c25:  x_2_8 - x_2_27 + x_8_27 <= 1
 c26:  x_16_18 + x_16_27 - x_18_27 <= 1
 c27:  x_9_10 + x_9_28 - x_10_28 <= 1
 c28:  x_17_18 - x_11_17 + x_11_18 <= 1
 c29:  x_3_6 - x_3_19 + x_6_19 <= 1
 c30:  x_17_19 + x_17_20 - x_19_20 <= 1
 c31:  x_3_8 - x_3_21 + x_8_21 <= 1
 c32:  x_3_8 - x_3_22 + x_8_22 <= 1
 c33:  x_23_25 - x_11_23 + x_11_25 <= 1
 c34:  x_25_26 + x_11_25 - x_11_26 <= 1
 c35:  x_26_27 + x_26_28 - x_27_28 <= 1
 c36:  x_26_27 + x_26_29 - x_27_29 <= 1
 c37:  x_26_27 + x_26_30 - x_27_30 <= 1
 c38:  x_3_24 - x_3_31 + x_24_31 <= 1
 c39:  x_26_27 + x_26_31 - x_27_31 <= 1
 c40:  x_0_4 + x_0_8 - x_4_8 <= 1
 c41:  x_1_4 + x_1_9 - x_4_9 <= 1
 c42:  - x_12_13 + x_12_17 + x_13_17 <= 1
 c43:  x_1_4 + x_1_16 - x_4_16 <= 1
 c44:  x_4_6 - x_4_19 + x_6_19 <= 1
 c45:  x_17_20 + x_12_17 - x_12_20 <= 1
 c46:  x_17_20 + x_17_21 - x_20_21 <= 1
 c47:  x_20_28 - x_20_29 + x_28_29 <= 1
 c48:  x_4_5 - x_4_30 + x_5_22 + x_22_30 <= 2
 c49:  x_0_5 + x_0_8 - x_5_8 <= 1
 c50:  x_0_5 + x_0_17 - x_5_12 + x_12_17 <= 2
 c51:  x_0_5 + x_0_17 - x_5_15 + x_15_17 <= 2
 c52:  x_16_18 - x_13_16 + x_13_18 <= 1
 c53:  x_17_24 + x_13_17 - x_13_24 <= 1
 c54:  x_16_21 + x_16_27 - x_21_27 <= 1
 c55:  x_21_25 - x_21_29 + x_25_29 <= 1
 c56:  - x_13_29 + x_13_30 + x_29_30 <= 1
 c57:  x_16_19 - x_14_16 + x_14_19 <= 1
 c58:  x_17_18 + x_14_17 - x_14_18 <= 1
 c59:  x_17_20 + x_14_17 - x_14_20 <= 1
 c60:  x_22_23 - x_22_26 + x_23_26 <= 1
 c61:  x_6_8 - x_6_27 + x_8_27 <= 1
 c62:  - x_22_27 + x_8_22 + x_8_27 <= 1
 c63:  x_1_7 + x_1_9 - x_7_9 <= 1
 c64:  x_2_7 + x_2_11 - x_7_11 <= 1
 c65:  x_7_8 - x_7_19 + x_8_19 <= 1
 c66:  x_17_24 + x_15_17 - x_15_24 <= 1
 c67:  x_21_25 + x_15_21 - x_15_25 <= 1
 c68:  x_7_24 - x_7_29 + x_24_29 <= 1
 c69:  x_22_23 + x_22_30 - x_23_30 <= 1
 c70:  x_7_24 - x_7_31 + x_24_31 <= 1
 c71:  - x_0_1 + x_0_3 + x_1_3 <= 1
 c72:  - x_0_2 + x_0_5 + x_2_5 <= 1
 c73:  x_3_8 + x_3_9 - x_8_9 <= 1
 c74:  x_0_3 - x_0_10 + x_3_10 <= 1
 c75:  - x_0_11 + x_0_14 + x_11_14 <= 1
 c76:  - x_16_17 + x_16_19 + x_17_19 <= 1
 c77:  - x_16_18 + x_16_19 + x_18_19 <= 1
 c78:  - x_24_26 + x_24_28 + x_26_28 <= 1
 c79:  - x_1_2 + x_1_4 + x_2_4 <= 1
 c80:  x_1_4 - x_1_5 + x_4_5 <= 1
 c81:  - x_17_20 + x_13_17 + x_13_20 <= 1
 c82:  x_23_29 - x_9_23 + x_9_29 <= 1
 c83:  - x_9_25 + x_9_29 + x_25_29 <= 1
 c84:  - x_9_26 + x_9_29 + x_26_29 <= 1
 c85:  - x_9_28 + x_9_29 + x_28_29 <= 1
 c86:  x_22_25 + x_22_28 - x_25_28 <= 1
 c87:  x_25_26 - x_25_30 + x_26_30 <= 1
 c88:  - x_2_3 + x_2_4 + x_3_4 <= 1
 c89:  x_2_6 - x_2_8 + x_6_8 <= 1
 c90:  x_8_10 + x_8_14 - x_10_15 + x_14_15 <= 2
 c91:  - x_18_20 + x_11_18 + x_11_20 <= 1
 c92:  - x_18_21 + x_11_18 + x_11_21 <= 1
 c93:  x_23_29 + x_9_10 + x_9_29 - x_10_23 <= 2
 c94:  x_24_29 + x_9_10 + x_9_29 - x_10_24 <= 2
 c95:  x_2_6 - x_2_27 + x_6_27 <= 1
 c96:  x_9_10 + x_9_29 - x_10_28 + x_28_29 <= 2
 c97:  x_17_19 - x_11_17 + x_11_19 <= 1
 c98:  - x_19_20 + x_11_19 + x_11_20 <= 1
 c99:  x_3_4 + x_3_8 - x_4_8 <= 1
 c100: x_11_12 + x_11_20 - x_12_20 <= 1
 c101: - x_20_21 + x_11_20 + x_11_21 <= 1
 c102: x_5_6 - x_5_8 + x_6_8 <= 1
 c103: x_16_21 - x_13_16 + x_13_21 <= 1
 c104: x_6_8 - x_6_13 + x_8_14 + x_13_14 <= 2
 c105: x_6_8 - x_6_15 + x_8_14 + x_14_15 <= 2
 c106: x_16_21 - x_14_16 + x_14_21 <= 1
 c107: x_11_14 + x_11_18 - x_14_18 <= 1
 c108: x_11_14 + x_11_20 - x_14_20 <= 1
 c109: x_22_25 - x_22_26 + x_25_26 <= 1
 c110: x_16_19 - x_15_16 + x_15_19 <= 1
 c111: x_23_28 - x_23_30 + x_28_30 <= 1
 c112: x_0_2 - x_0_10 + x_2_10 <= 1
 c113: - x_8_14 + x_8_21 + x_14_21 <= 1
 c114: x_19_21 - x_8_19 + x_8_21 <= 1
 c115: x_24_25 - x_24_26 + x_25_26 <= 1
 c116: - x_1_2 + x_1_3 + x_2_3 <= 1
 c117: x_1_3 - x_1_4 + x_3_4 <= 1
 c118: - x_1_5 + x_1_6 + x_5_6 <= 1
 c119: - x_17_19 + x_14_17 + x_14_19 <= 1
 c120: x_17_24 - x_17_25 + x_24_25 <= 1
 c121: x_8_10 + x_8_21 - x_10_15 + x_15_21 <= 2
 c122: x_19_21 + x_8_10 + x_8_21 - x_10_19 <= 2
 c123: - x_11_14 + x_11_19 + x_14_19 <= 1
 c124: x_17_21 - x_11_17 + x_11_21 <= 1
 c125: x_18_19 - x_11_18 + x_11_19 <= 1
 c126: x_11_13 - x_11_20 + x_13_20 <= 1
 c127: x_23_31 - x_11_23 + x_11_31 <= 1
 c128: x_26_31 - x_11_26 + x_11_31 <= 1
 c129: x_2_4 + x_2_8 - x_4_8 <= 1
 c130: x_2_4 + x_2_9 - x_4_9 <= 1
 c131: x_18_19 + x_12_18 - x_12_19 <= 1
 c132: x_9_26 - x_9_29 + x_26_29 <= 1
 c133: x_1_3 - x_1_7 + x_3_7 <= 1
 c134: x_2_6 + x_2_7 - x_6_7 <= 1
 c135: x_2_7 + x_2_9 - x_7_9 <= 1
 c136: - x_0_12 + x_0_14 + x_12_14 <= 1
 c137: - x_9_26 + x_9_28 + x_26_28 <= 1
 c138: x_9_28 - x_9_29 + x_28_29 <= 1
 c139: - x_12_13 + x_12_21 + x_13_21 <= 1
 c140: x_19_21 - x_12_19 + x_12_21 <= 1
 c141: x_1_6 + x_1_16 - x_6_16 <= 1
 c142: - x_0_11 + x_0_17 + x_11_12 + x_12_17 <= 2
 c143: x_1_3 - x_1_9 + x_3_9 <= 1
 c144: x_23_25 + x_23_28 - x_25_28 <= 1
 c145: - x_18_20 + x_15_18 + x_15_20 <= 1
 c146: - x_18_21 + x_12_18 + x_12_21 <= 1
 c147: x_18_19 - x_18_27 + x_8_19 + x_8_27 <= 2
 c148: x_3_4 + x_3_9 - x_4_9 <= 1
 c149: - x_20_21 + x_15_20 + x_15_21 <= 1
 c150: x_18_19 + x_13_18 - x_13_19 <= 1
 c151: - x_21_27 + x_8_21 + x_8_27 <= 1
 c152: x_14_15 - x_14_20 + x_15_20 <= 1
 c153: - x_22_26 + x_22_28 + x_26_28 <= 1
 c154: - x_0_11 + x_0_17 + x_11_13 + x_13_17 <= 2
 c155: x_17_18 + x_17_21 - x_18_21 <= 1
 c156: - x_12_13 + x_12_18 + x_13_18 <= 1
 c157: x_20_28 - x_20_30 + x_28_30 <= 1
 c158: x_0_5 + x_0_17 - x_5_15 + x_13_15 + x_13_17 <= 3
 c159: x_13_15 - x_13_16 + x_15_16 <= 1
 c160: x_19_21 - x_13_19 + x_13_21 <= 1
 c161: - x_0_1 + x_0_10 + x_1_10 <= 1
 c162: - x_0_3 + x_0_10 + x_3_10 <= 1
 c163: x_0_2 - x_0_8 + x_2_8 <= 1
 c164: - x_0_12 + x_0_17 + x_12_17 <= 1
 c165: - x_0_14 + x_0_17 + x_14_17 <= 1
 c166: x_5_8 + x_5_12 - x_8_14 + x_12_14 <= 2
 c167: - x_0_16 + x_0_17 + x_16_17 <= 1
 c168: x_5_8 + x_5_15 - x_8_19 + x_15_19 <= 2
 c169: x_5_8 + x_5_12 - x_8_21 + x_12_21 <= 2
 c170: x_0_2 - x_0_23 + x_2_8 + x_22_23 + x_8_22 <= 3
 c171: - x_16_23 + x_23_26 + x_9_16 + x_9_26 <= 2
 c172: x_0_11 - x_0_24 + x_24_25 + x_11_25 <= 2
 c173: x_22_25 + x_8_22 - x_8_24 + x_24_25 <= 2
 c174: - x_24_26 + x_24_31 + x_26_31 <= 1
 c175: x_0_2 - x_0_27 + x_2_8 + x_22_23 + x_23_27 + x_8_22 <= 4
 c176: - x_16_27 + x_23_26 + x_23_27 + x_9_16 + x_9_26 <= 3
 c177: x_22_23 + x_23_27 + x_8_22 - x_8_27 <= 2
 c178: x_23_27 + x_23_29 - x_24_27 + x_24_29 <= 2
 c179: x_0_2 - x_0_28 + x_2_9 + x_9_26 + x_26_28 <= 3
 c180: x_22_23 + x_23_28 + x_8_22 - x_8_28 <= 2
 c181: - x_24_28 + x_24_29 + x_28_29 <= 1
 c182: x_0_2 - x_0_30 + x_2_9 + x_9_26 + x_26_30 <= 3
 c183: - x_1_2 + x_1_9 + x_2_9 <= 1
 c184: - x_1_4 + x_1_7 + x_4_7 <= 1
 c185: - x_1_5 + x_1_10 + x_5_10 <= 1
 c186: x_1_3 - x_1_6 + x_3_6 <= 1
 c187: - x_1_11 + x_1_16 + x_11_14 + x_14_16 <= 2
 c188: - x_9_14 + x_9_16 + x_14_16 <= 1
 c189: - x_9_15 + x_9_16 + x_15_16 <= 1
 c190: x_8_9 + x_8_22 - x_9_22 <= 1
 c191: x_23_26 - x_9_23 + x_9_26 <= 1
 c192: - x_17_24 + x_24_25 + x_11_17 + x_11_25 <= 2
 c193: - x_17_25 + x_11_17 + x_11_25 <= 1
 c194: x_22_25 + x_8_9 + x_8_22 - x_9_25 <= 2
 c195: x_1_9 - x_1_26 + x_9_26 <= 1
 c196: x_22_25 + x_22_26 - x_25_26 <= 1
 c197: x_23_26 + x_23_27 + x_9_26 - x_9_27 <= 2
 c198: x_22_23 + x_22_25 + x_23_27 - x_25_27 <= 2
 c199: x_9_26 - x_9_28 + x_26_28 <= 1
 c200: - x_25_28 + x_25_29 + x_28_29 <= 1
 c201: x_23_26 + x_23_29 + x_9_26 - x_9_29 <= 2
 c202: x_16_17 - x_17_30 + x_9_16 + x_9_26 + x_26_30 <= 3
 c203: x_25_29 - x_25_30 + x_29_30 <= 1
 c204: - x_2_3 + x_2_6 + x_3_6 <= 1
 c205: x_0_2 + x_0_4 - x_2_4 <= 1
 c206: - x_2_7 + x_2_8 + x_7_8 <= 1
 c207: x_0_2 + x_0_11 - x_2_11 <= 1
 c208: x_0_10 + x_0_11 - x_10_11 <= 1
 c209: x_2_5 - x_2_15 + x_5_15 <= 1
 c210: x_5_10 + x_5_15 - x_10_15 <= 1
 c211: x_16_18 + x_16_19 - x_18_19 <= 1
 c212: x_0_10 + x_0_17 + x_17_19 - x_10_19 <= 2
 c213: x_0_2 + x_0_17 + x_17_21 - x_2_21 <= 2
 c214: x_2_8 - x_2_22 + x_8_22 <= 1
 c215: x_22_23 + x_8_10 + x_8_22 - x_10_23 <= 2
 c216: x_0_2 + x_0_11 - x_2_24 + x_24_25 + x_11_25 <= 3
 c217: x_0_10 + x_0_11 + x_24_25 - x_10_24 + x_11_25 <= 3
 c218: x_16_18 - x_18_26 + x_9_16 + x_9_26 <= 2
 c219: x_2_8 - x_2_27 + x_22_23 + x_23_27 + x_8_22 <= 3
 c220: x_16_18 - x_18_27 + x_23_26 + x_23_27 + x_9_16 + x_9_26 <= 4
 c221: x_23_26 + x_23_27 - x_26_27 <= 1
 c222: x_2_9 - x_2_28 + x_9_26 + x_26_28 <= 2
 c223: x_9_10 + x_9_26 - x_10_28 + x_26_28 <= 2
 c224: - x_18_29 + x_25_29 + x_11_18 + x_11_25 <= 2
 c225: x_23_26 + x_23_29 - x_26_29 <= 1
 c226: x_2_9 - x_2_30 + x_9_26 + x_26_30 <= 2
 c227: x_16_18 - x_18_31 + x_9_16 + x_9_26 + x_26_31 <= 3
 c228: - x_3_4 + x_3_6 + x_4_6 <= 1
 c229: - x_3_11 + x_3_22 + x_22_25 + x_11_25 <= 2
 c230: x_3_6 - x_3_12 + x_5_6 + x_5_12 <= 2
 c231: - x_11_13 + x_11_17 + x_13_17 <= 1
 c232: x_16_18 + x_1_3 + x_1_16 - x_3_18 <= 2
 c233: x_16_19 + x_1_3 + x_1_16 - x_3_19 <= 2
 c234: x_16_21 + x_1_3 + x_1_16 - x_3_21 <= 2
 c235: x_16_19 + x_16_21 - x_19_21 <= 1
 c236: x_22_23 + x_22_25 - x_11_23 + x_11_25 <= 2
 c237: x_3_22 - x_3_24 + x_22_25 + x_24_25 <= 2
 c238: - x_19_24 + x_24_25 + x_11_19 + x_11_25 <= 2
 c239: x_3_22 - x_3_26 + x_22_26 <= 1
 c240: x_22_25 + x_22_26 + x_11_25 - x_11_26 <= 2
 c241: x_23_27 + x_23_28 - x_27_28 <= 1
 c242: x_23_27 + x_23_29 - x_27_29 <= 1
 c243: x_16_19 - x_19_30 + x_9_16 + x_9_26 + x_26_30 <= 3
 c244: x_23_27 + x_23_30 - x_27_30 <= 1
 c245: x_3_22 - x_3_31 + x_22_23 + x_23_31 <= 2
 c246: x_24_25 + x_24_31 + x_11_25 - x_11_31 <= 2
 c247: x_23_27 + x_23_31 - x_27_31 <= 1
 c248: x_4_5 - x_4_8 + x_5_8 <= 1
 c249: x_4_7 - x_4_9 + x_7_9 <= 1
 c250: x_4_5 - x_4_12 + x_5_12 <= 1
 c251: x_0_4 + x_0_17 - x_4_14 + x_14_17 <= 2
 c252: x_4_5 - x_4_15 + x_5_15 <= 1
 c253: x_0_4 + x_0_17 + x_16_17 - x_4_16 <= 2
 c254: x_0_4 + x_0_17 + x_17_19 - x_4_19 <= 2
 c255: x_17_19 + x_12_17 - x_12_19 <= 1
 c256: x_22_25 + x_11_12 + x_11_25 - x_12_22 <= 2
 c257: x_22_23 + x_22_25 + x_11_12 + x_11_25 - x_12_23 <= 3
 c258: x_4_7 - x_4_26 + x_7_9 + x_9_26 <= 2
 c259: x_25_29 + x_11_12 + x_11_25 - x_12_28 + x_28_29 <= 3
 c260: x_4_7 - x_4_30 + x_7_9 + x_9_26 + x_26_30 <= 3
 c261: x_4_7 - x_4_31 + x_7_9 + x_9_26 + x_26_31 <= 3
 c262: x_16_19 + x_13_16 - x_13_19 <= 1
 c263: x_5_8 - x_5_22 + x_8_22 <= 1
 c264: x_23_26 + x_9_16 + x_9_26 + x_13_16 - x_13_23 <= 3
 c265: x_0_5 + x_0_11 - x_5_24 + x_24_25 + x_11_25 <= 3
 c266: x_24_25 + x_11_17 + x_11_25 + x_13_17 - x_13_24 <= 3
 c267: - x_21_25 + x_11_21 + x_11_25 <= 1
 c268: x_16_21 - x_21_27 + x_23_26 + x_23_27 + x_9_16 + x_9_26 <= 4
 c269: x_16_21 - x_21_28 + x_9_16 + x_9_26 + x_26_28 <= 3
 c270: x_9_16 + x_9_26 + x_26_28 + x_13_16 - x_13_28 <= 3
 c271: - x_21_29 + x_25_29 + x_11_21 + x_11_25 <= 2
 c272: x_25_29 + x_11_17 + x_11_25 + x_13_17 - x_13_29 <= 3
 c273: x_9_16 + x_9_26 + x_26_30 + x_13_16 - x_13_30 <= 3
 c274: x_3_6 + x_3_7 - x_6_7 <= 1
 c275: x_5_6 + x_5_12 - x_6_13 + x_12_13 <= 2
 c276: x_5_6 + x_5_15 - x_6_15 <= 1
 c277: x_2_6 + x_2_9 - x_6_16 + x_9_16 <= 2
 c278: x_5_6 + x_5_15 - x_6_19 + x_15_19 <= 2
 c279: x_3_6 + x_3_22 - x_6_25 + x_22_25 <= 2
 c280: x_2_6 + x_2_9 - x_6_26 + x_9_26 <= 2
 c281: x_9_16 + x_9_26 + x_14_16 - x_14_26 <= 2
 c282: x_3_6 + x_3_22 + x_22_23 - x_6_27 + x_23_27 <= 3
 c283: x_22_23 - x_22_27 + x_23_27 <= 1
 c284: x_22_23 - x_22_28 + x_23_28 <= 1
 c285: x_22_23 - x_22_30 + x_23_30 <= 1
 c286: x_9_16 + x_9_26 + x_26_31 + x_14_16 - x_14_31 <= 3
 c287: x_0_4 + x_0_11 + x_4_7 - x_7_11 <= 2
 c288: x_16_19 + x_1_7 + x_1_16 - x_7_19 <= 2
 c289: x_3_7 + x_3_22 + x_22_25 - x_7_24 + x_24_25 <= 3
 c290: - x_23_24 + x_23_29 + x_24_29 <= 1
 c291: x_24_25 + x_11_15 + x_11_25 - x_15_24 <= 2
 c292: x_22_23 + x_22_25 - x_23_25 <= 1
 c293: x_11_15 + x_11_25 - x_15_25 <= 1
 c294: x_9_16 + x_9_26 + x_26_28 + x_15_16 - x_15_28 <= 3
 c295: x_3_7 + x_3_22 + x_22_23 - x_7_29 + x_23_29 <= 3
 c296: x_7_9 - x_7_31 + x_9_26 + x_26_31 <= 2
 c297: x_4_8 + x_4_9 - x_8_9 <= 1
 c298: x_0_8 + x_0_10 - x_8_10 <= 1
 c299: x_0_8 - x_0_11 + x_8_19 + x_11_13 + x_13_19 <= 3
 c300: x_0_8 - x_0_12 + x_8_14 + x_12_14 <= 2
 c301: x_0_8 - x_0_14 + x_8_14 <= 1
 c302: x_0_8 - x_0_16 + x_16_19 + x_8_19 <= 2
 c303: x_0_8 - x_0_17 + x_16_17 + x_16_19 + x_8_19 <= 3
 c304: - x_16_20 + x_13_16 + x_13_20 <= 1
 c305: x_0_1 + x_0_8 - x_1_11 + x_8_19 + x_11_13 + x_13_19 <= 4
 c306: x_4_8 + x_4_9 + x_8_14 - x_9_14 <= 2
 c307: x_4_8 + x_4_9 + x_8_19 - x_9_15 + x_15_19 <= 3
 c308: x_0_1 + x_0_8 + x_16_19 - x_1_16 + x_8_19 <= 3
 c309: x_16_19 + x_4_8 + x_4_9 + x_8_19 - x_9_16 <= 3
 c310: x_16_17 + x_16_18 - x_17_18 <= 1
 c311: x_16_17 + x_16_19 - x_17_19 <= 1
 c312: x_4_8 + x_4_9 + x_8_19 - x_9_20 + x_13_19 + x_13_20 <= 4
 c313: x_16_17 + x_16_21 - x_17_21 <= 1
 c314: x_0_2 + x_0_8 - x_2_8 <= 1
 c315: x_0_2 + x_0_8 - x_2_11 + x_8_19 + x_11_13 + x_13_19 <= 4
 c316: x_0_8 + x_0_10 + x_8_19 - x_10_11 + x_11_13 + x_13_19 <= 4
 c317: x_0_2 + x_0_8 - x_2_15 + x_8_19 + x_15_19 <= 3
 c318: x_0_8 + x_0_10 + x_8_19 - x_10_15 + x_15_19 <= 3
 c319: x_0_8 + x_0_10 + x_8_19 - x_10_19 <= 2
 c320: x_0_2 + x_0_8 - x_2_20 + x_8_19 + x_13_19 + x_13_20 <= 4
 c321: - x_18_20 + x_13_18 + x_13_20 <= 1
 c322: x_0_2 + x_0_8 - x_2_21 + x_8_21 <= 2
 c323: x_16_18 + x_16_21 - x_18_21 <= 1
 c324: x_0_3 + x_0_8 - x_3_8 <= 1
 c325: x_1_3 + x_1_9 - x_3_9 <= 1
 c326: x_0_3 + x_0_8 - x_3_11 + x_8_19 + x_11_13 + x_13_19 <= 4
 c327: x_0_3 + x_0_8 - x_3_12 + x_8_14 + x_12_14 <= 3
 c328: x_11_12 - x_11_14 + x_12_14 <= 1
 c329: x_17_20 - x_11_17 + x_11_20 <= 1
 c330: x_0_3 + x_0_8 + x_18_19 - x_3_18 + x_8_19 <= 3
 c331: x_11_13 - x_11_18 + x_13_18 <= 1
 c332: x_0_3 + x_0_8 - x_3_19 + x_8_19 <= 2
 c333: x_11_13 - x_11_19 + x_13_19 <= 1
 c334: - x_19_20 + x_13_19 + x_13_20 <= 1
 c335: x_0_3 + x_0_8 - x_3_21 + x_8_21 <= 2
 c336: x_11_13 - x_11_21 + x_13_21 <= 1
 c337: x_4_8 - x_4_12 + x_8_14 + x_12_14 <= 2
 c338: x_4_8 - x_4_14 + x_8_14 <= 1
 c339: x_4_8 - x_4_15 + x_8_19 + x_15_19 <= 2
 c340: x_16_19 + x_4_8 - x_4_16 + x_8_19 <= 2
 c341: x_12_13 - x_12_18 + x_13_18 <= 1
 c342: x_4_8 - x_4_19 + x_8_19 <= 1
 c343: x_12_13 - x_12_19 + x_13_19 <= 1
 c344: x_4_8 - x_4_20 + x_8_19 + x_13_19 + x_13_20 <= 3
 c345: - x_20_21 + x_13_20 + x_13_21 <= 1
 c346: x_12_13 - x_12_21 + x_13_21 <= 1
 c347: x_5_8 - x_5_12 + x_8_14 + x_12_14 <= 2
 c348: x_5_8 - x_5_15 + x_8_19 + x_15_19 <= 2
 c349: x_5_8 - x_5_20 + x_8_19 + x_13_19 + x_13_20 <= 3
 c350: x_4_6 + x_4_8 - x_6_8 <= 1
 c351: x_4_6 + x_4_8 - x_6_13 + x_8_19 + x_13_19 <= 3
 c352: x_4_6 + x_4_8 - x_6_15 + x_8_19 + x_15_19 <= 3
 c353: x_16_19 + x_4_6 + x_4_8 - x_6_16 + x_8_19 <= 3
 c354: x_16_17 + x_14_16 - x_14_17 <= 1
 c355: x_16_18 + x_14_16 - x_14_18 <= 1
 c356: x_4_6 + x_4_8 - x_6_19 + x_8_19 <= 2
 c357: x_12_14 + x_12_20 - x_14_20 <= 1
 c358: x_4_7 + x_4_8 - x_7_8 <= 1
 c359: x_4_7 + x_4_8 - x_7_11 + x_8_19 + x_11_13 + x_13_19 <= 4
 c360: x_4_7 + x_4_8 - x_7_19 + x_8_19 <= 2
 c361: x_17_20 + x_15_17 - x_15_20 <= 1
Bounds
 0 <= x_0_1 <= 1
 0 <= x_0_2 <= 1
 0 <= x_0_3 <= 1
 0 <= x_0_4 <= 1
 0 <= x_0_5 <= 1
 0 <= x_0_8 <= 1
 0 <= x_0_10 <= 1
 0 <= x_0_11 <= 1
 0 <= x_0_12 <= 1
 0 <= x_0_14 <= 1
 0 <= x_0_16 <= 1
 0 <= x_0_17 <= 1
 0 <= x_16_17 <= 1
 0 <= x_16_18 <= 1
 0 <= x_16_19 <= 1
 0 <= x_16_20 <= 1
 0 <= x_16_21 <= 1
 0 <= x_0_23 <= 1
 0 <= x_16_23 <= 1
 0 <= x_0_24 <= 1
 0 <= x_0_27 <= 1
 0 <= x_16_27 <= 1
 0 <= x_0_28 <= 1
 0 <= x_0_30 <= 1
 0 <= x_1_2 <= 1
 0 <= x_1_3 <= 1
 0 <= x_1_4 <= 1
 0 <= x_1_5 <= 1
 0 <= x_1_6 <= 1
 0 <= x_1_7 <= 1
 0 <= x_1_9 <= 1
 0 <= x_1_10 <= 1
 0 <= x_1_11 <= 1
 0 <= x_1_16 <= 1
 0 <= x_17_18 <= 1
 0 <= x_17_19 <= 1
 0 <= x_17_20 <= 1
 0 <= x_17_21 <= 1
 0 <= x_17_24 <= 1
 0 <= x_17_25 <= 1
 0 <= x_1_26 <= 1
 0 <= x_17_30 <= 1
 0 <= x_2_3 <= 1
 0 <= x_2_4 <= 1
 0 <= x_2_5 <= 1
 0 <= x_2_6 <= 1
 0 <= x_2_7 <= 1
 0 <= x_2_8 <= 1
 0 <= x_2_9 <= 1
 0 <= x_2_10 <= 1
 0 <= x_2_11 <= 1
 0 <= x_2_15 <= 1
 0 <= x_18_19 <= 1
 0 <= x_2_20 <= 1
 0 <= x_18_20 <= 1
 0 <= x_2_21 <= 1
 0 <= x_18_21 <= 1
 0 <= x_2_22 <= 1
 0 <= x_2_24 <= 1
 0 <= x_18_26 <= 1
 0 <= x_2_27 <= 1
 0 <= x_18_27 <= 1
 0 <= x_2_28 <= 1
 0 <= x_18_29 <= 1
 0 <= x_2_30 <= 1
 0 <= x_18_31 <= 1
 0 <= x_3_4 <= 1
 0 <= x_3_6 <= 1
 0 <= x_3_7 <= 1
 0 <= x_3_8 <= 1
 0 <= x_3_9 <= 1
 0 <= x_3_10 <= 1
 0 <= x_3_11 <= 1
 0 <= x_3_12 <= 1
 0 <= x_3_18 <= 1
 0 <= x_3_19 <= 1
 0 <= x_19_20 <= 1
 0 <= x_3_21 <= 1
 0 <= x_19_21 <= 1
 0 <= x_3_22 <= 1
 0 <= x_3_24 <= 1
 0 <= x_19_24 <= 1
 0 <= x_3_26 <= 1
 0 <= x_19_30 <= 1
 0 <= x_3_31 <= 1
 0 <= x_4_5 <= 1
 0 <= x_4_6 <= 1
 0 <= x_4_7 <= 1
 0 <= x_4_8 <= 1
 0 <= x_4_9 <= 1
 0 <= x_4_10 <= 1
 0 <= x_4_12 <= 1
 0 <= x_4_14 <= 1
 0 <= x_4_15 <= 1
 0 <= x_4_16 <= 1
 0 <= x_4_19 <= 1
 0 <= x_4_20 <= 1
 0 <= x_20_21 <= 1
 0 <= x_20_24 <= 1
 0 <= x_4_26 <= 1
 0 <= x_20_28 <= 1
 0 <= x_20_29 <= 1
 0 <= x_4_30 <= 1
 0 <= x_20_30 <= 1
 0 <= x_4_31 <= 1
 0 <= x_20_31 <= 1
 0 <= x_5_6 <= 1
 0 <= x_5_8 <= 1
 0 <= x_5_10 <= 1
 0 <= x_5_12 <= 1
 0 <= x_5_15 <= 1
 0 <= x_5_20 <= 1
 0 <= x_5_22 <= 1
 0 <= x_5_24 <= 1
 0 <= x_21_25 <= 1
 0 <= x_21_27 <= 1
 0 <= x_21_28 <= 1
 0 <= x_21_29 <= 1
 0 <= x_6_7 <= 1
 0 <= x_6_8 <= 1
 0 <= x_6_10 <= 1
 0 <= x_6_13 <= 1
 0 <= x_6_15 <= 1
 0 <= x_6_16 <= 1
 0 <= x_6_19 <= 1
 0 <= x_22_23 <= 1
 0 <= x_6_25 <= 1
 0 <= x_22_25 <= 1
 0 <= x_6_26 <= 1
 0 <= x_22_26 <= 1
 0 <= x_6_27 <= 1
 0 <= x_22_27 <= 1
 0 <= x_22_28 <= 1
 0 <= x_22_30 <= 1
 0 <= x_7_8 <= 1
 0 <= x_7_9 <= 1
 0 <= x_7_10 <= 1
 0 <= x_7_11 <= 1
 0 <= x_7_19 <= 1
 0 <= x_7_24 <= 1
 0 <= x_23_24 <= 1
 0 <= x_23_25 <= 1
 0 <= x_23_26 <= 1
 0 <= x_23_27 <= 1
 0 <= x_23_28 <= 1
 0 <= x_7_29 <= 1
 0 <= x_23_29 <= 1
 0 <= x_23_30 <= 1
 0 <= x_7_31 <= 1
 0 <= x_23_31 <= 1
 0 <= x_8_9 <= 1
 0 <= x_8_10 <= 1
 0 <= x_8_14 <= 1
 0 <= x_8_19 <= 1
 0 <= x_8_21 <= 1
 0 <= x_8_22 <= 1
 0 <= x_8_24 <= 1
 0 <= x_24_25 <= 1
 0 <= x_24_26 <= 1
 0 <= x_8_27 <= 1
 0 <= x_24_27 <= 1
 0 <= x_8_28 <= 1
 0 <= x_24_28 <= 1
 0 <= x_24_29 <= 1
 0 <= x_24_31 <= 1
 0 <= x_9_10 <= 1
 0 <= x_9_14 <= 1
 0 <= x_9_15 <= 1
 0 <= x_9_16 <= 1
 0 <= x_9_20 <= 1
 0 <= x_9_22 <= 1
 0 <= x_9_23 <= 1
 0 <= x_9_25 <= 1
 0 <= x_9_26 <= 1
 0 <= x_25_26 <= 1
 0 <= x_9_27 <= 1
 0 <= x_25_27 <= 1
 0 <= x_9_28 <= 1
 0 <= x_25_28 <= 1
 0 <= x_9_29 <= 1
 0 <= x_25_29 <= 1
 0 <= x_25_30 <= 1
 0 <= x_10_11 <= 1
 0 <= x_10_15 <= 1
 0 <= x_10_19 <= 1
 0 <= x_10_23 <= 1
 0 <= x_10_24 <= 1
 0 <= x_26_27 <= 1
 0 <= x_10_28 <= 1
 0 <= x_26_28 <= 1
 0 <= x_26_29 <= 1
 0 <= x_26_30 <= 1
 0 <= x_26_31 <= 1
 0 <= x_11_12 <= 1
 0 <= x_11_13 <= 1
 0 <= x_11_14 <= 1
 0 <= x_11_15 <= 1
 0 <= x_11_17 <= 1
 0 <= x_11_18 <= 1
 0 <= x_11_19 <= 1
 0 <= x_11_20 <= 1
 0 <= x_11_21 <= 1
 0 <= x_11_23 <= 1
 0 <= x_11_25 <= 1
 0 <= x_11_26 <= 1
 0 <= x_27_28 <= 1
 0 <= x_27_29 <= 1
 0 <= x_27_30 <= 1
 0 <= x_11_31 <= 1
 0 <= x_27_31 <= 1
 0 <= x_12_13 <= 1
 0 <= x_12_14 <= 1
 0 <= x_12_17 <= 1
 0 <= x_12_18 <= 1
 0 <= x_12_19 <= 1
 0 <= x_12_20 <= 1
 0 <= x_12_21 <= 1
 0 <= x_12_22 <= 1
 0 <= x_12_23 <= 1
 0 <= x_12_28 <= 1
 0 <= x_28_29 <= 1
 0 <= x_28_30 <= 1
 0 <= x_13_14 <= 1
 0 <= x_13_15 <= 1
 0 <= x_13_16 <= 1
 0 <= x_13_17 <= 1
 0 <= x_13_18 <= 1
 0 <= x_13_19 <= 1
 0 <= x_13_20 <= 1
 0 <= x_13_21 <= 1
 0 <= x_13_23 <= 1
 0 <= x_13_24 <= 1
 0 <= x_13_28 <= 1
 0 <= x_13_29 <= 1
 0 <= x_13_30 <= 1
 0 <= x_29_30 <= 1
 0 <= x_29_31 <= 1
 0 <= x_14_15 <= 1
 0 <= x_14_16 <= 1
 0 <= x_14_17 <= 1
 0 <= x_14_18 <= 1
 0 <= x_14_19 <= 1
 0 <= x_14_20 <= 1
 0 <= x_14_21 <= 1
 0 <= x_14_26 <= 1
 0 <= x_14_31 <= 1
 0 <= x_30_31 <= 1
 0 <= x_15_16 <= 1
 0 <= x_15_17 <= 1
 0 <= x_15_18 <= 1
 0 <= x_15_19 <= 1
 0 <= x_15_20 <= 1
 0 <= x_15_21 <= 1
 0 <= x_15_24 <= 1
 0 <= x_15_25 <= 1
 0 <= x_15_28 <= 1
Generals
 x_0_1  x_0_2  x_0_3  x_0_4  x_0_5  x_0_8  x_0_10  x_0_11  x_0_12  x_0_14 
 x_0_16  x_0_17  x_16_17  x_16_18  x_16_19  x_16_20  x_16_21  x_0_23  x_16_23 
 x_0_24  x_0_27  x_16_27  x_0_28  x_0_30  x_1_2  x_1_3  x_1_4  x_1_5  x_1_6 
 x_1_7  x_1_9  x_1_10  x_1_11  x_1_16  x_17_18  x_17_19  x_17_20  x_17_21 
 x_17_24  x_17_25  x_1_26  x_17_30  x_2_3  x_2_4  x_2_5  x_2_6  x_2_7  x_2_8 
 x_2_9  x_2_10  x_2_11  x_2_15  x_18_19  x_2_20  x_18_20  x_2_21  x_18_21 
 x_2_22  x_2_24  x_18_26  x_2_27  x_18_27  x_2_28  x_18_29  x_2_30  x_18_31 
 x_3_4  x_3_6  x_3_7  x_3_8  x_3_9  x_3_10  x_3_11  x_3_12  x_3_18  x_3_19 
 x_19_20  x_3_21  x_19_21  x_3_22  x_3_24  x_19_24  x_3_26  x_19_30  x_3_31 
 x_4_5  x_4_6  x_4_7  x_4_8  x_4_9  x_4_10  x_4_12  x_4_14  x_4_15  x_4_16 
 x_4_19  x_4_20  x_20_21  x_20_24  x_4_26  x_20_28  x_20_29  x_4_30  x_20_30 
 x_4_31  x_20_31  x_5_6  x_5_8  x_5_10  x_5_12  x_5_15  x_5_20  x_5_22  x_5_24 
 x_21_25  x_21_27  x_21_28  x_21_29  x_6_7  x_6_8  x_6_10  x_6_13  x_6_15 
 x_6_16  x_6_19  x_22_23  x_6_25  x_22_25  x_6_26  x_22_26  x_6_27  x_22_27 
 x_22_28  x_22_30  x_7_8  x_7_9  x_7_10  x_7_11  x_7_19  x_7_24  x_23_24 
 x_23_25  x_23_26  x_23_27  x_23_28  x_7_29  x_23_29  x_23_30  x_7_31  x_23_31 
 x_8_9  x_8_10  x_8_14  x_8_19  x_8_21  x_8_22  x_8_24  x_24_25  x_24_26 
 x_8_27  x_24_27  x_8_28  x_24_28  x_24_29  x_24_31  x_9_10  x_9_14  x_9_15 
 x_9_16  x_9_20  x_9_22  x_9_23  x_9_25  x_9_26  x_25_26  x_9_27  x_25_27 
 x_9_28  x_25_28  x_9_29  x_25_29  x_25_30  x_10_11  x_10_15  x_10_19  x_10_23 
 x_10_24  x_26_27  x_10_28  x_26_28  x_26_29  x_26_30  x_26_31  x_11_12 
 x_11_13  x_11_14  x_11_15  x_11_17  x_11_18  x_11_19  x_11_20  x_11_21 
 x_11_23  x_11_25  x_11_26  x_27_28  x_27_29  x_27_30  x_11_31  x_27_31 
 x_12_13  x_12_14  x_12_17  x_12_18  x_12_19  x_12_20  x_12_21  x_12_22 
 x_12_23  x_12_28  x_28_29  x_28_30  x_13_14  x_13_15  x_13_16  x_13_17 
 x_13_18  x_13_19  x_13_20  x_13_21  x_13_23  x_13_24  x_13_28  x_13_29 
 x_13_30  x_29_30  x_29_31  x_14_15  x_14_16  x_14_17  x_14_18  x_14_19 
 x_14_20  x_14_21  x_14_26  x_14_31  x_30_31  x_15_16  x_15_17  x_15_18 
 x_15_19  x_15_20  x_15_21  x_15_24  x_15_25  x_15_28 
End
